500
[54,55,58,63,67,68,70,71,72,77,78,79,80,85,89,90,91,92,96,100,103,107,110,111,114,116,117,123,124,125,128,129,131,132,133,134,135,137,141,142,144,145,146,147,148,152,153,155,156,157,161,164,169,172,174,175,177,178,179,180,181,183,185,186,188,192,196,204,205,207,208,210,211,213,214,215,217,218,221,223,227,230,232,237,238,239,243,248,251,252,254,256,259,262,263,266,268,273,274,275,280,281,282,287,289,290,293,295,297,298,300,301,304,305,307,308,309,314,315,316,324,327,328,333,335,336,338,341,342,344,346,349,351,352,355,356,358,362,363,364,366,367,369,375,379,384,385,386,388,389,390,392,393,394,398,399,400]
[1,1,2,2,1,1,1,2,1,1,1,1,1,1,3,1,1,1,1,1,2,2,1,1,1,1,1,1,1,1,2,1,1,1,1,1,2,1,1,2,1,1,1,1,1,1,1,1,1,1,2,1,1,1,2,1,1,2,1,1,2,2,1,1,1,1,1,1,1,1,1,2,1,1,1,1,1,1,1,1,1,1,2,1,1,2,1,1,1,2,1,1,1,1,3,1,1,2,2,1,2,1,1,3,1,3,1,1,5,1,1,1,1,1,1,1,1,2,1,2,1,2,1,1,2,1,1,2,2,1,1,2,1,1,1,1,1,3,2,1,1,1,1,2,1,1,1,1,1,1,1,1,1,1,1,1,1]
